59
43
42
37
44
26
26
43
24
44
26
42
24
23
0
26
32
21
25
61
48
57
23
38
37
29
48
37
44
0
41
27
55
0
25
0
25
57
30
32
30
40
32
35
0
44
63
56
20
0
30
33
41
23
53
0
34
25
46
0
50
52
36
80
55
27
59
23
46
24
77
21
62
0
21
0
37
41
58
42
58
36
36
42
48
27
32
0
36
100
27
0
39
23
40
25
32
0
36
34
